
<<< setup

Tried aggregator 1 time.
LP Presolve eliminated 86 rows and 46 columns.
Reduced LP has 4 rows, 28 columns, and 28 nonzeros.
Presolve time = 0.00 sec. (0.04 ticks)

Iteration log . . .
Iteration:     1   Dual infeasibility =             0.000000
Iteration:     2   Dual objective     =           712.150395
main returns 0

<<< main


<<< done

